c SAT Generator for power-law distributed variable frequencies
c -g u -v 20 -c 91 -k 3 -p 2.750000 -b 3.200000 -f /home/schmidt/Devel/ni-kop-sat/data/ensemble/ruf20-91/ruf20-91-885 -u 1 -U 1 -s 2562857479
p cnf 20 91
-11 17 -18 0
-1 -11 -15 0
-4 15 -17 0
9 17 -18 0
6 7 18 0
1 3 10 0
-1 -7 16 0
-3 -9 15 0
-2 8 9 0
-4 8 14 0
-12 13 -15 0
-12 15 18 0
2 -8 -17 0
-9 12 -20 0
1 -6 13 0
12 14 19 0
-3 11 18 0
-1 8 -9 0
-9 -11 -20 0
2 12 16 0
-9 -11 15 0
9 11 14 0
-1 6 12 0
5 -12 -13 0
11 18 -20 0
-6 15 18 0
2 -4 -12 0
-1 7 8 0
-7 -14 20 0
-2 5 12 0
7 16 19 0
-1 -3 -11 0
-1 -9 13 0
-2 6 11 0
5 -6 12 0
-1 -15 -17 0
-1 2 5 0
-10 -12 14 0
-4 -6 11 0
-1 7 -19 0
-2 8 16 0
-9 11 15 0
-8 9 19 0
-9 13 -16 0
10 12 -20 0
-1 -8 -11 0
-6 9 16 0
-6 -7 -11 0
-2 -5 6 0
-4 17 -19 0
-9 -13 16 0
7 -14 -19 0
9 15 18 0
2 -13 -15 0
-3 6 11 0
10 -12 20 0
-4 10 -20 0
-5 14 -16 0
3 -9 -11 0
-5 8 11 0
9 -10 15 0
4 -6 -10 0
-7 -12 15 0
-12 16 20 0
9 -11 16 0
-10 11 20 0
2 6 19 0
2 6 15 0
3 -6 -14 0
-11 13 14 0
-8 -11 17 0
1 8 14 0
-2 13 -15 0
-3 -16 18 0
3 -5 -15 0
1 17 -19 0
4 15 18 0
-9 -12 20 0
-2 5 6 0
-8 9 11 0
-4 -13 -15 0
5 8 16 0
-6 8 11 0
4 -11 12 0
-7 -8 15 0
-8 9 -10 0
-6 -13 18 0
-1 -9 16 0
1 -4 11 0
-1 -12 20 0
8 15 -18 0
